53
3 11 55 120 
2 116 45 
2 49 84 
2 21 100 
3 28 71 81 
2 75 3 
2 105 102 
2 83 37 
3 95 76 38 
2 97 36 
3 60 32 77 
2 9 63 
3 7 68 88 
2 118 40 
2 54 85 
2 52 35 
3 12 87 114 
3 82 48 110 
2 98 43 
2 119 53 
2 94 107 
3 33 31 91 
3 74 22 1 
3 14 16 73 
2 34 93 
3 30 69 117 
2 86 13 
2 57 89 
4 56 27 64 109 
3 8 59 23 
2 112 58 
2 83 18 
2 47 92 
2 46 4 
2 24 51 
2 104 44 
2 111 25 
2 39 20 
2 80 70 
2 50 90 
2 99 62 
2 108 11 
2 106 96 
3 5 67 10 
1 6 
3 7 29 42 
2 115 19 
2 113 66 
1 103 
2 2 68 
2 2 17 
3 55 120 29 
1 78 
